data/lp_files/pEFS/59_6.lp
\ Model foo
\ LP format - for model browsing. Use MPS format to capture full model detail.
Minimize
  z
Subject To
 allocateEach[1]: x[1,1] + x[2,1] + x[3,1] = 1
 allocateEach[2]: x[1,2] + x[2,2] + x[3,2] = 1
 allocateEach[3]: x[1,3] + x[2,3] + x[3,3] = 1
 allocateEach[4]: x[1,4] + x[2,4] + x[3,4] = 1
 allocateEach[5]: x[1,5] + x[2,5] + x[3,5] = 1
 allocateEach[6]: x[1,6] + x[2,6] + x[3,6] = 1
 allocateEach[7]: x[1,7] + x[2,7] + x[3,7] = 1
 allocateEach[8]: x[1,8] + x[2,8] + x[3,8] = 1
 allocateEach[9]: x[1,9] + x[2,9] + x[3,9] = 1
 allocateEach[10]: x[1,10] + x[2,10] + x[3,10] = 1
 allocateEach[11]: x[1,11] + x[2,11] + x[3,11] = 1
 allocateEach[12]: x[1,12] + x[2,12] + x[3,12] = 1
 allocateEach[13]: x[1,13] + x[2,13] + x[3,13] = 1
 allocateEach[14]: x[1,14] + x[2,14] + x[3,14] = 1
 allocateEach[15]: x[1,15] + x[2,15] + x[3,15] = 1
 allocateEach[16]: x[1,16] + x[2,16] + x[3,16] = 1
 allocateEach[17]: x[1,17] + x[2,17] + x[3,17] = 1
 allocateEach[18]: x[1,18] + x[2,18] + x[3,18] = 1
 allocateEach[19]: x[1,19] + x[2,19] + x[3,19] = 1
 allocateAllCash: cashProportion[1] + cashProportion[2] + cashProportion[3]
   = 1
 findWorstP[1,2]: z + 0.0367066769445362 cashProportion[1]
   - 0.0367066769445362 cashProportion[2] + 0.086389164188966 x[1,1]
   + 0.0892431083214037 x[1,2] + 0.0231160298058217 x[1,3]
   + 0.0601255368351503 x[1,4] + 0.0162977645633741 x[1,5]
   + 0.0834342766949308 x[1,6] + 0.0659710751385677 x[1,7]
   + 0.0731288771427523 x[1,8] + 0.00152332709319825 x[1,9]
   + 0.0722662702345557 x[1,10] + 0.00448739125646955 x[1,11]
   + 0.0824523730866645 x[1,12] + 0.00019271 x[1,13]
   + 0.0314025621260507 x[1,14] + 0.0600613001504974 x[1,15]
   + 0.0277777777777778 x[1,16] + 0.0242722901295746 x[1,17]
   + 0.0866002275813971 x[1,18] + 0.074551260874353 x[1,19]
   - 0.086389164188966 x[2,1] - 0.0892431083214037 x[2,2]
   - 0.0231160298058217 x[2,3] - 0.0601255368351503 x[2,4]
   - 0.0162977645633741 x[2,5] - 0.0834342766949308 x[2,6]
   - 0.0659710751385677 x[2,7] - 0.0731288771427523 x[2,8]
   - 0.00152332709319825 x[2,9] - 0.0722662702345557 x[2,10]
   - 0.00448739125646955 x[2,11] - 0.0824523730866645 x[2,12]
   - 0.00019271 x[2,13] - 0.0314025621260507 x[2,14]
   - 0.0600613001504974 x[2,15] - 0.0277777777777778 x[2,16]
   - 0.0242722901295746 x[2,17] - 0.0866002275813971 x[2,18]
   - 0.074551260874353 x[2,19] >= 0
 findWorstP[1,3]: z + 0.0367066769445362 cashProportion[1]
   - 0.0367066769445362 cashProportion[3] + 0.086389164188966 x[1,1]
   + 0.0892431083214037 x[1,2] + 0.0231160298058217 x[1,3]
   + 0.0601255368351503 x[1,4] + 0.0162977645633741 x[1,5]
   + 0.0834342766949308 x[1,6] + 0.0659710751385677 x[1,7]
   + 0.0731288771427523 x[1,8] + 0.00152332709319825 x[1,9]
   + 0.0722662702345557 x[1,10] + 0.00448739125646955 x[1,11]
   + 0.0824523730866645 x[1,12] + 0.00019271 x[1,13]
   + 0.0314025621260507 x[1,14] + 0.0600613001504974 x[1,15]
   + 0.0277777777777778 x[1,16] + 0.0242722901295746 x[1,17]
   + 0.0866002275813971 x[1,18] + 0.074551260874353 x[1,19]
   - 0.086389164188966 x[3,1] - 0.0892431083214037 x[3,2]
   - 0.0231160298058217 x[3,3] - 0.0601255368351503 x[3,4]
   - 0.0162977645633741 x[3,5] - 0.0834342766949308 x[3,6]
   - 0.0659710751385677 x[3,7] - 0.0731288771427523 x[3,8]
   - 0.00152332709319825 x[3,9] - 0.0722662702345557 x[3,10]
   - 0.00448739125646955 x[3,11] - 0.0824523730866645 x[3,12]
   - 0.00019271 x[3,13] - 0.0314025621260507 x[3,14]
   - 0.0600613001504974 x[3,15] - 0.0277777777777778 x[3,16]
   - 0.0242722901295746 x[3,17] - 0.0866002275813971 x[3,18]
   - 0.074551260874353 x[3,19] >= 0
 findWorstP[2,1]: z - 0.0532921207599456 cashProportion[1]
   + 0.0532921207599456 cashProportion[2] - 0.0062751472194836 x[1,1]
   - 0.00386367875509606 x[1,2] - 0.1075834687841403 x[1,3]
   - 0.124530363185803 x[1,4] - 0.0483892456500306 x[1,5]
   - 0.0635375309760452 x[1,6] - 0.083308907777985 x[1,7]
   - 0.0185456580244611 x[1,8] - 0.0984438700738096 x[1,9]
   - 0.0133363532201764 x[1,10] - 0.0303365397425991 x[1,11]
   - 0.00807375629513176 x[1,12] - 0.0233685949532362 x[1,13]
   - 0.0870127101708012 x[1,14] - 0.0474166644461616 x[1,15]
   - 0.0182925204508513 x[1,16] - 0.0566894934583922 x[1,17]
   - 0.0827493405100056 x[1,18] - 0.0249540355458445 x[1,19]
   + 0.0062751472194836 x[2,1] + 0.00386367875509606 x[2,2]
   + 0.1075834687841403 x[2,3] + 0.124530363185803 x[2,4]
   + 0.0483892456500306 x[2,5] + 0.0635375309760452 x[2,6]
   + 0.083308907777985 x[2,7] + 0.0185456580244611 x[2,8]
   + 0.0984438700738096 x[2,9] + 0.0133363532201764 x[2,10]
   + 0.0303365397425991 x[2,11] + 0.00807375629513176 x[2,12]
   + 0.0233685949532362 x[2,13] + 0.0870127101708012 x[2,14]
   + 0.0474166644461616 x[2,15] + 0.0182925204508513 x[2,16]
   + 0.0566894934583922 x[2,17] + 0.0827493405100056 x[2,18]
   + 0.0249540355458445 x[2,19] >= 0
 findWorstP[2,3]: z + 0.0532921207599456 cashProportion[2]
   - 0.0532921207599456 cashProportion[3] + 0.0062751472194836 x[2,1]
   + 0.00386367875509606 x[2,2] + 0.1075834687841403 x[2,3]
   + 0.124530363185803 x[2,4] + 0.0483892456500306 x[2,5]
   + 0.0635375309760452 x[2,6] + 0.083308907777985 x[2,7]
   + 0.0185456580244611 x[2,8] + 0.0984438700738096 x[2,9]
   + 0.0133363532201764 x[2,10] + 0.0303365397425991 x[2,11]
   + 0.00807375629513176 x[2,12] + 0.0233685949532362 x[2,13]
   + 0.0870127101708012 x[2,14] + 0.0474166644461616 x[2,15]
   + 0.0182925204508513 x[2,16] + 0.0566894934583922 x[2,17]
   + 0.0827493405100056 x[2,18] + 0.0249540355458445 x[2,19]
   - 0.0062751472194836 x[3,1] - 0.00386367875509606 x[3,2]
   - 0.1075834687841403 x[3,3] - 0.124530363185803 x[3,4]
   - 0.0483892456500306 x[3,5] - 0.0635375309760452 x[3,6]
   - 0.083308907777985 x[3,7] - 0.0185456580244611 x[3,8]
   - 0.0984438700738096 x[3,9] - 0.0133363532201764 x[3,10]
   - 0.0303365397425991 x[3,11] - 0.00807375629513176 x[3,12]
   - 0.0233685949532362 x[3,13] - 0.0870127101708012 x[3,14]
   - 0.0474166644461616 x[3,15] - 0.0182925204508513 x[3,16]
   - 0.0566894934583922 x[3,17] - 0.0827493405100056 x[3,18]
   - 0.0249540355458445 x[3,19] >= 0
 findWorstP[3,1]: z - 0.0292819337789068 cashProportion[1]
   + 0.0292819337789068 cashProportion[3] - 0.0296918808518115 x[1,1]
   - 0.02049003316179 x[1,2] - 0.00476563472251708 x[1,3]
   - 0.0590030965644971 x[1,4] - 0.0519461505237806 x[1,5]
   - 0.060079207630872 x[1,6] - 0.0479638075298493 x[1,7]
   - 0.0551012788884578 x[1,8] - 0.0606575258230054 x[1,9]
   - 0.039186547879622 x[1,10] - 0.042239189476073 x[1,11]
   - 0.0644129338301502 x[1,12] - 0.0698740144799163 x[1,13]
   - 0.0684318792413051 x[1,14] - 0.0698740144799163 x[1,15]
   - 0.0696544 x[1,16] - 0.0403139023301099 x[1,17]
   - 0.0679340863670637 x[1,18] - 0.0490984824637819 x[1,19]
   + 0.0296918808518115 x[3,1] + 0.02049003316179 x[3,2]
   + 0.00476563472251708 x[3,3] + 0.0590030965644971 x[3,4]
   + 0.0519461505237806 x[3,5] + 0.060079207630872 x[3,6]
   + 0.0479638075298493 x[3,7] + 0.0551012788884578 x[3,8]
   + 0.0606575258230054 x[3,9] + 0.039186547879622 x[3,10]
   + 0.042239189476073 x[3,11] + 0.0644129338301502 x[3,12]
   + 0.0698740144799163 x[3,13] + 0.0684318792413051 x[3,14]
   + 0.0698740144799163 x[3,15] + 0.0696544 x[3,16]
   + 0.0403139023301099 x[3,17] + 0.0679340863670637 x[3,18]
   + 0.0490984824637819 x[3,19] >= 0
 findWorstP[3,2]: z - 0.0292819337789068 cashProportion[2]
   + 0.0292819337789068 cashProportion[3] - 0.0296918808518115 x[2,1]
   - 0.02049003316179 x[2,2] - 0.00476563472251708 x[2,3]
   - 0.0590030965644971 x[2,4] - 0.0519461505237806 x[2,5]
   - 0.060079207630872 x[2,6] - 0.0479638075298493 x[2,7]
   - 0.0551012788884578 x[2,8] - 0.0606575258230054 x[2,9]
   - 0.039186547879622 x[2,10] - 0.042239189476073 x[2,11]
   - 0.0644129338301502 x[2,12] - 0.0698740144799163 x[2,13]
   - 0.0684318792413051 x[2,14] - 0.0698740144799163 x[2,15]
   - 0.0696544 x[2,16] - 0.0403139023301099 x[2,17]
   - 0.0679340863670637 x[2,18] - 0.0490984824637819 x[2,19]
   + 0.0296918808518115 x[3,1] + 0.02049003316179 x[3,2]
   + 0.00476563472251708 x[3,3] + 0.0590030965644971 x[3,4]
   + 0.0519461505237806 x[3,5] + 0.060079207630872 x[3,6]
   + 0.0479638075298493 x[3,7] + 0.0551012788884578 x[3,8]
   + 0.0606575258230054 x[3,9] + 0.039186547879622 x[3,10]
   + 0.042239189476073 x[3,11] + 0.0644129338301502 x[3,12]
   + 0.0698740144799163 x[3,13] + 0.0684318792413051 x[3,14]
   + 0.0698740144799163 x[3,15] + 0.0696544 x[3,16]
   + 0.0403139023301099 x[3,17] + 0.0679340863670637 x[3,18]
   + 0.0490984824637819 x[3,19] >= 0
Bounds
 z <= 1
 -infinity <= cashProportion[1] <= 1
 -infinity <= cashProportion[2] <= 1
 -infinity <= cashProportion[3] <= 1
Binaries
 x[1,1] x[1,2] x[1,3] x[1,4] x[1,5] x[1,6] x[1,7] x[1,8] x[1,9] x[1,10]
 x[1,11] x[1,12] x[1,13] x[1,14] x[1,15] x[1,16] x[1,17] x[1,18] x[1,19]
 x[2,1] x[2,2] x[2,3] x[2,4] x[2,5] x[2,6] x[2,7] x[2,8] x[2,9] x[2,10]
 x[2,11] x[2,12] x[2,13] x[2,14] x[2,15] x[2,16] x[2,17] x[2,18] x[2,19]
 x[3,1] x[3,2] x[3,3] x[3,4] x[3,5] x[3,6] x[3,7] x[3,8] x[3,9] x[3,10]
 x[3,11] x[3,12] x[3,13] x[3,14] x[3,15] x[3,16] x[3,17] x[3,18] x[3,19]
End
