data/mps_files/q3/59_6.mps
NAME foo
ROWS
 N  OBJ
 E  allocateEach[1]
 E  allocateEach[2]
 E  allocateEach[3]
 E  allocateEach[4]
 E  allocateEach[5]
 E  allocateEach[6]
 E  allocateEach[7]
 E  allocateEach[8]
 E  allocateEach[9]
 E  allocateEach[10]
 E  allocateEach[11]
 E  allocateEach[12]
 E  allocateEach[13]
 E  allocateEach[14]
 E  allocateEach[15]
 E  allocateEach[16]
 E  allocateEach[17]
 E  allocateEach[18]
 E  allocateEach[19]
 E  allocateAllCash
 G  findWorstP[1,2]
 G  findWorstP[1,3]
 G  findWorstP[2,1]
 G  findWorstP[2,3]
 G  findWorstP[3,1]
 G  findWorstP[3,2]
COLUMNS
    z         OBJ       1
    z         findWorstP[1,2]  1
    z         findWorstP[1,3]  1
    z         findWorstP[2,1]  1
    z         findWorstP[2,3]  1
    z         findWorstP[3,1]  1
    z         findWorstP[3,2]  1
    cashProportion[1]  allocateAllCash  1
    cashProportion[1]  findWorstP[1,2]  3.6706676944536214e-02
    cashProportion[1]  findWorstP[1,3]  3.6706676944536214e-02
    cashProportion[1]  findWorstP[2,1]  -5.3292120759945640e-02
    cashProportion[1]  findWorstP[3,1]  -2.9281933778906769e-02
    cashProportion[2]  allocateAllCash  1
    cashProportion[2]  findWorstP[1,2]  -3.6706676944536214e-02
    cashProportion[2]  findWorstP[2,1]  5.3292120759945640e-02
    cashProportion[2]  findWorstP[2,3]  5.3292120759945640e-02
    cashProportion[2]  findWorstP[3,2]  -2.9281933778906769e-02
    cashProportion[3]  allocateAllCash  1
    cashProportion[3]  findWorstP[1,3]  -3.6706676944536214e-02
    cashProportion[3]  findWorstP[2,3]  -5.3292120759945640e-02
    cashProportion[3]  findWorstP[3,1]  2.9281933778906769e-02
    cashProportion[3]  findWorstP[3,2]  2.9281933778906769e-02
    MARKER    'MARKER'                 'INTORG'
    x[1,1]    allocateEach[1]  1
    x[1,1]    findWorstP[1,2]  8.6389164188965972e-02
    x[1,1]    findWorstP[1,3]  8.6389164188965972e-02
    x[1,1]    findWorstP[2,1]  -0.0062751472194836
    x[1,1]    findWorstP[3,1]  -2.9691880851811462e-02
    x[1,2]    allocateEach[2]  1
    x[1,2]    findWorstP[1,2]  8.9243108321403669e-02
    x[1,2]    findWorstP[1,3]  8.9243108321403669e-02
    x[1,2]    findWorstP[2,1]  -3.8636787550960588e-03
    x[1,2]    findWorstP[3,1]  -2.0490033161790010e-02
    x[1,3]    allocateEach[3]  1
    x[1,3]    findWorstP[1,2]  2.3116029805821680e-02
    x[1,3]    findWorstP[1,3]  2.3116029805821680e-02
    x[1,3]    findWorstP[2,1]  -1.0758346878414025e-01
    x[1,3]    findWorstP[3,1]  -4.7656347225170769e-03
    x[1,4]    allocateEach[4]  1
    x[1,4]    findWorstP[1,2]  6.0125536835150310e-02
    x[1,4]    findWorstP[1,3]  6.0125536835150310e-02
    x[1,4]    findWorstP[2,1]  -1.2453036318580296e-01
    x[1,4]    findWorstP[3,1]  -5.9003096564497134e-02
    x[1,5]    allocateEach[5]  1
    x[1,5]    findWorstP[1,2]  1.6297764563374079e-02
    x[1,5]    findWorstP[1,3]  1.6297764563374079e-02
    x[1,5]    findWorstP[2,1]  -4.8389245650030645e-02
    x[1,5]    findWorstP[3,1]  -5.1946150523780606e-02
    x[1,6]    allocateEach[6]  1
    x[1,6]    findWorstP[1,2]  8.3434276694930809e-02
    x[1,6]    findWorstP[1,3]  8.3434276694930809e-02
    x[1,6]    findWorstP[2,1]  -6.3537530976045184e-02
    x[1,6]    findWorstP[3,1]  -6.0079207630871954e-02
    x[1,7]    allocateEach[7]  1
    x[1,7]    findWorstP[1,2]  0.0659710751385677
    x[1,7]    findWorstP[1,3]  0.0659710751385677
    x[1,7]    findWorstP[2,1]  -8.3308907777985011e-02
    x[1,7]    findWorstP[3,1]  -4.7963807529849280e-02
    x[1,8]    allocateEach[8]  1
    x[1,8]    findWorstP[1,2]  7.3128877142752263e-02
    x[1,8]    findWorstP[1,3]  7.3128877142752263e-02
    x[1,8]    findWorstP[2,1]  -1.8545658024461082e-02
    x[1,8]    findWorstP[3,1]  -5.5101278888457811e-02
    x[1,9]    allocateEach[9]  1
    x[1,9]    findWorstP[1,2]  1.5233270931982528e-03
    x[1,9]    findWorstP[1,3]  1.5233270931982528e-03
    x[1,9]    findWorstP[2,1]  -9.8443870073809586e-02
    x[1,9]    findWorstP[3,1]  -6.0657525823005362e-02
    x[1,10]   allocateEach[10]  1
    x[1,10]   findWorstP[1,2]  7.2266270234555660e-02
    x[1,10]   findWorstP[1,3]  7.2266270234555660e-02
    x[1,10]   findWorstP[2,1]  -1.3336353220176395e-02
    x[1,10]   findWorstP[3,1]  -3.9186547879621982e-02
    x[1,11]   allocateEach[11]  1
    x[1,11]   findWorstP[1,2]  4.4873912564695516e-03
    x[1,11]   findWorstP[1,3]  4.4873912564695516e-03
    x[1,11]   findWorstP[2,1]  -3.0336539742599058e-02
    x[1,11]   findWorstP[3,1]  -4.2239189476073004e-02
    x[1,12]   allocateEach[12]  1
    x[1,12]   findWorstP[1,2]  8.2452373086664463e-02
    x[1,12]   findWorstP[1,3]  8.2452373086664463e-02
    x[1,12]   findWorstP[2,1]  -8.0737562951317642e-03
    x[1,12]   findWorstP[3,1]  -6.4412933830150162e-02
    x[1,13]   allocateEach[13]  1
    x[1,13]   findWorstP[1,2]  1.9271005395881508e-04
    x[1,13]   findWorstP[1,3]  1.9271005395881508e-04
    x[1,13]   findWorstP[2,1]  -2.3368594953236163e-02
    x[1,13]   findWorstP[3,1]  -6.9874014479916272e-02
    x[1,14]   allocateEach[14]  1
    x[1,14]   findWorstP[1,2]  3.1402562126050727e-02
    x[1,14]   findWorstP[1,3]  3.1402562126050727e-02
    x[1,14]   findWorstP[2,1]  -8.7012710170801241e-02
    x[1,14]   findWorstP[3,1]  -6.8431879241305116e-02
    x[1,15]   allocateEach[15]  1
    x[1,15]   findWorstP[1,2]  6.0061300150497370e-02
    x[1,15]   findWorstP[1,3]  6.0061300150497370e-02
    x[1,15]   findWorstP[2,1]  -4.7416664446161633e-02
    x[1,15]   findWorstP[3,1]  -6.9874014479916272e-02
    x[1,16]   allocateEach[16]  1
    x[1,16]   findWorstP[1,2]  2.7777777777777780e-02
    x[1,16]   findWorstP[1,3]  2.7777777777777780e-02
    x[1,16]   findWorstP[2,1]  -1.8292520450851342e-02
    x[1,16]   findWorstP[3,1]  -6.9654399976574466e-02
    x[1,17]   allocateEach[17]  1
    x[1,17]   findWorstP[1,2]  2.4272290129574568e-02
    x[1,17]   findWorstP[1,3]  2.4272290129574568e-02
    x[1,17]   findWorstP[2,1]  -5.6689493458392172e-02
    x[1,17]   findWorstP[3,1]  -4.0313902330109889e-02
    x[1,18]   allocateEach[18]  1
    x[1,18]   findWorstP[1,2]  8.6600227581397057e-02
    x[1,18]   findWorstP[1,3]  8.6600227581397057e-02
    x[1,18]   findWorstP[2,1]  -8.2749340510005584e-02
    x[1,18]   findWorstP[3,1]  -0.0679340863670637
    x[1,19]   allocateEach[19]  1
    x[1,19]   findWorstP[1,2]  7.4551260874353042e-02
    x[1,19]   findWorstP[1,3]  7.4551260874353042e-02
    x[1,19]   findWorstP[2,1]  -2.4954035545844543e-02
    x[1,19]   findWorstP[3,1]  -4.9098482463781914e-02
    x[2,1]    allocateEach[1]  1
    x[2,1]    findWorstP[1,2]  -8.6389164188965972e-02
    x[2,1]    findWorstP[2,1]  0.0062751472194836
    x[2,1]    findWorstP[2,3]  0.0062751472194836
    x[2,1]    findWorstP[3,2]  -2.9691880851811462e-02
    x[2,2]    allocateEach[2]  1
    x[2,2]    findWorstP[1,2]  -8.9243108321403669e-02
    x[2,2]    findWorstP[2,1]  3.8636787550960588e-03
    x[2,2]    findWorstP[2,3]  3.8636787550960588e-03
    x[2,2]    findWorstP[3,2]  -2.0490033161790010e-02
    x[2,3]    allocateEach[3]  1
    x[2,3]    findWorstP[1,2]  -2.3116029805821680e-02
    x[2,3]    findWorstP[2,1]  1.0758346878414025e-01
    x[2,3]    findWorstP[2,3]  1.0758346878414025e-01
    x[2,3]    findWorstP[3,2]  -4.7656347225170769e-03
    x[2,4]    allocateEach[4]  1
    x[2,4]    findWorstP[1,2]  -6.0125536835150310e-02
    x[2,4]    findWorstP[2,1]  1.2453036318580296e-01
    x[2,4]    findWorstP[2,3]  1.2453036318580296e-01
    x[2,4]    findWorstP[3,2]  -5.9003096564497134e-02
    x[2,5]    allocateEach[5]  1
    x[2,5]    findWorstP[1,2]  -1.6297764563374079e-02
    x[2,5]    findWorstP[2,1]  4.8389245650030645e-02
    x[2,5]    findWorstP[2,3]  4.8389245650030645e-02
    x[2,5]    findWorstP[3,2]  -5.1946150523780606e-02
    x[2,6]    allocateEach[6]  1
    x[2,6]    findWorstP[1,2]  -8.3434276694930809e-02
    x[2,6]    findWorstP[2,1]  6.3537530976045184e-02
    x[2,6]    findWorstP[2,3]  6.3537530976045184e-02
    x[2,6]    findWorstP[3,2]  -6.0079207630871954e-02
    x[2,7]    allocateEach[7]  1
    x[2,7]    findWorstP[1,2]  -0.0659710751385677
    x[2,7]    findWorstP[2,1]  8.3308907777985011e-02
    x[2,7]    findWorstP[2,3]  8.3308907777985011e-02
    x[2,7]    findWorstP[3,2]  -4.7963807529849280e-02
    x[2,8]    allocateEach[8]  1
    x[2,8]    findWorstP[1,2]  -7.3128877142752263e-02
    x[2,8]    findWorstP[2,1]  1.8545658024461082e-02
    x[2,8]    findWorstP[2,3]  1.8545658024461082e-02
    x[2,8]    findWorstP[3,2]  -5.5101278888457811e-02
    x[2,9]    allocateEach[9]  1
    x[2,9]    findWorstP[1,2]  -1.5233270931982528e-03
    x[2,9]    findWorstP[2,1]  9.8443870073809586e-02
    x[2,9]    findWorstP[2,3]  9.8443870073809586e-02
    x[2,9]    findWorstP[3,2]  -6.0657525823005362e-02
    x[2,10]   allocateEach[10]  1
    x[2,10]   findWorstP[1,2]  -7.2266270234555660e-02
    x[2,10]   findWorstP[2,1]  1.3336353220176395e-02
    x[2,10]   findWorstP[2,3]  1.3336353220176395e-02
    x[2,10]   findWorstP[3,2]  -3.9186547879621982e-02
    x[2,11]   allocateEach[11]  1
    x[2,11]   findWorstP[1,2]  -4.4873912564695516e-03
    x[2,11]   findWorstP[2,1]  3.0336539742599058e-02
    x[2,11]   findWorstP[2,3]  3.0336539742599058e-02
    x[2,11]   findWorstP[3,2]  -4.2239189476073004e-02
    x[2,12]   allocateEach[12]  1
    x[2,12]   findWorstP[1,2]  -8.2452373086664463e-02
    x[2,12]   findWorstP[2,1]  8.0737562951317642e-03
    x[2,12]   findWorstP[2,3]  8.0737562951317642e-03
    x[2,12]   findWorstP[3,2]  -6.4412933830150162e-02
    x[2,13]   allocateEach[13]  1
    x[2,13]   findWorstP[1,2]  -1.9271005395881508e-04
    x[2,13]   findWorstP[2,1]  2.3368594953236163e-02
    x[2,13]   findWorstP[2,3]  2.3368594953236163e-02
    x[2,13]   findWorstP[3,2]  -6.9874014479916272e-02
    x[2,14]   allocateEach[14]  1
    x[2,14]   findWorstP[1,2]  -3.1402562126050727e-02
    x[2,14]   findWorstP[2,1]  8.7012710170801241e-02
    x[2,14]   findWorstP[2,3]  8.7012710170801241e-02
    x[2,14]   findWorstP[3,2]  -6.8431879241305116e-02
    x[2,15]   allocateEach[15]  1
    x[2,15]   findWorstP[1,2]  -6.0061300150497370e-02
    x[2,15]   findWorstP[2,1]  4.7416664446161633e-02
    x[2,15]   findWorstP[2,3]  4.7416664446161633e-02
    x[2,15]   findWorstP[3,2]  -6.9874014479916272e-02
    x[2,16]   allocateEach[16]  1
    x[2,16]   findWorstP[1,2]  -2.7777777777777780e-02
    x[2,16]   findWorstP[2,1]  1.8292520450851342e-02
    x[2,16]   findWorstP[2,3]  1.8292520450851342e-02
    x[2,16]   findWorstP[3,2]  -6.9654399976574466e-02
    x[2,17]   allocateEach[17]  1
    x[2,17]   findWorstP[1,2]  -2.4272290129574568e-02
    x[2,17]   findWorstP[2,1]  5.6689493458392172e-02
    x[2,17]   findWorstP[2,3]  5.6689493458392172e-02
    x[2,17]   findWorstP[3,2]  -4.0313902330109889e-02
    x[2,18]   allocateEach[18]  1
    x[2,18]   findWorstP[1,2]  -8.6600227581397057e-02
    x[2,18]   findWorstP[2,1]  8.2749340510005584e-02
    x[2,18]   findWorstP[2,3]  8.2749340510005584e-02
    x[2,18]   findWorstP[3,2]  -0.0679340863670637
    x[2,19]   allocateEach[19]  1
    x[2,19]   findWorstP[1,2]  -7.4551260874353042e-02
    x[2,19]   findWorstP[2,1]  2.4954035545844543e-02
    x[2,19]   findWorstP[2,3]  2.4954035545844543e-02
    x[2,19]   findWorstP[3,2]  -4.9098482463781914e-02
    x[3,1]    allocateEach[1]  1
    x[3,1]    findWorstP[1,3]  -8.6389164188965972e-02
    x[3,1]    findWorstP[2,3]  -0.0062751472194836
    x[3,1]    findWorstP[3,1]  2.9691880851811462e-02
    x[3,1]    findWorstP[3,2]  2.9691880851811462e-02
    x[3,2]    allocateEach[2]  1
    x[3,2]    findWorstP[1,3]  -8.9243108321403669e-02
    x[3,2]    findWorstP[2,3]  -3.8636787550960588e-03
    x[3,2]    findWorstP[3,1]  2.0490033161790010e-02
    x[3,2]    findWorstP[3,2]  2.0490033161790010e-02
    x[3,3]    allocateEach[3]  1
    x[3,3]    findWorstP[1,3]  -2.3116029805821680e-02
    x[3,3]    findWorstP[2,3]  -1.0758346878414025e-01
    x[3,3]    findWorstP[3,1]  4.7656347225170769e-03
    x[3,3]    findWorstP[3,2]  4.7656347225170769e-03
    x[3,4]    allocateEach[4]  1
    x[3,4]    findWorstP[1,3]  -6.0125536835150310e-02
    x[3,4]    findWorstP[2,3]  -1.2453036318580296e-01
    x[3,4]    findWorstP[3,1]  5.9003096564497134e-02
    x[3,4]    findWorstP[3,2]  5.9003096564497134e-02
    x[3,5]    allocateEach[5]  1
    x[3,5]    findWorstP[1,3]  -1.6297764563374079e-02
    x[3,5]    findWorstP[2,3]  -4.8389245650030645e-02
    x[3,5]    findWorstP[3,1]  5.1946150523780606e-02
    x[3,5]    findWorstP[3,2]  5.1946150523780606e-02
    x[3,6]    allocateEach[6]  1
    x[3,6]    findWorstP[1,3]  -8.3434276694930809e-02
    x[3,6]    findWorstP[2,3]  -6.3537530976045184e-02
    x[3,6]    findWorstP[3,1]  6.0079207630871954e-02
    x[3,6]    findWorstP[3,2]  6.0079207630871954e-02
    x[3,7]    allocateEach[7]  1
    x[3,7]    findWorstP[1,3]  -0.0659710751385677
    x[3,7]    findWorstP[2,3]  -8.3308907777985011e-02
    x[3,7]    findWorstP[3,1]  4.7963807529849280e-02
    x[3,7]    findWorstP[3,2]  4.7963807529849280e-02
    x[3,8]    allocateEach[8]  1
    x[3,8]    findWorstP[1,3]  -7.3128877142752263e-02
    x[3,8]    findWorstP[2,3]  -1.8545658024461082e-02
    x[3,8]    findWorstP[3,1]  5.5101278888457811e-02
    x[3,8]    findWorstP[3,2]  5.5101278888457811e-02
    x[3,9]    allocateEach[9]  1
    x[3,9]    findWorstP[1,3]  -1.5233270931982528e-03
    x[3,9]    findWorstP[2,3]  -9.8443870073809586e-02
    x[3,9]    findWorstP[3,1]  6.0657525823005362e-02
    x[3,9]    findWorstP[3,2]  6.0657525823005362e-02
    x[3,10]   allocateEach[10]  1
    x[3,10]   findWorstP[1,3]  -7.2266270234555660e-02
    x[3,10]   findWorstP[2,3]  -1.3336353220176395e-02
    x[3,10]   findWorstP[3,1]  3.9186547879621982e-02
    x[3,10]   findWorstP[3,2]  3.9186547879621982e-02
    x[3,11]   allocateEach[11]  1
    x[3,11]   findWorstP[1,3]  -4.4873912564695516e-03
    x[3,11]   findWorstP[2,3]  -3.0336539742599058e-02
    x[3,11]   findWorstP[3,1]  4.2239189476073004e-02
    x[3,11]   findWorstP[3,2]  4.2239189476073004e-02
    x[3,12]   allocateEach[12]  1
    x[3,12]   findWorstP[1,3]  -8.2452373086664463e-02
    x[3,12]   findWorstP[2,3]  -8.0737562951317642e-03
    x[3,12]   findWorstP[3,1]  6.4412933830150162e-02
    x[3,12]   findWorstP[3,2]  6.4412933830150162e-02
    x[3,13]   allocateEach[13]  1
    x[3,13]   findWorstP[1,3]  -1.9271005395881508e-04
    x[3,13]   findWorstP[2,3]  -2.3368594953236163e-02
    x[3,13]   findWorstP[3,1]  6.9874014479916272e-02
    x[3,13]   findWorstP[3,2]  6.9874014479916272e-02
    x[3,14]   allocateEach[14]  1
    x[3,14]   findWorstP[1,3]  -3.1402562126050727e-02
    x[3,14]   findWorstP[2,3]  -8.7012710170801241e-02
    x[3,14]   findWorstP[3,1]  6.8431879241305116e-02
    x[3,14]   findWorstP[3,2]  6.8431879241305116e-02
    x[3,15]   allocateEach[15]  1
    x[3,15]   findWorstP[1,3]  -6.0061300150497370e-02
    x[3,15]   findWorstP[2,3]  -4.7416664446161633e-02
    x[3,15]   findWorstP[3,1]  6.9874014479916272e-02
    x[3,15]   findWorstP[3,2]  6.9874014479916272e-02
    x[3,16]   allocateEach[16]  1
    x[3,16]   findWorstP[1,3]  -2.7777777777777780e-02
    x[3,16]   findWorstP[2,3]  -1.8292520450851342e-02
    x[3,16]   findWorstP[3,1]  6.9654399976574466e-02
    x[3,16]   findWorstP[3,2]  6.9654399976574466e-02
    x[3,17]   allocateEach[17]  1
    x[3,17]   findWorstP[1,3]  -2.4272290129574568e-02
    x[3,17]   findWorstP[2,3]  -5.6689493458392172e-02
    x[3,17]   findWorstP[3,1]  4.0313902330109889e-02
    x[3,17]   findWorstP[3,2]  4.0313902330109889e-02
    x[3,18]   allocateEach[18]  1
    x[3,18]   findWorstP[1,3]  -8.6600227581397057e-02
    x[3,18]   findWorstP[2,3]  -8.2749340510005584e-02
    x[3,18]   findWorstP[3,1]  0.0679340863670637
    x[3,18]   findWorstP[3,2]  0.0679340863670637
    x[3,19]   allocateEach[19]  1
    x[3,19]   findWorstP[1,3]  -7.4551260874353042e-02
    x[3,19]   findWorstP[2,3]  -2.4954035545844543e-02
    x[3,19]   findWorstP[3,1]  4.9098482463781914e-02
    x[3,19]   findWorstP[3,2]  4.9098482463781914e-02
    MARKER    'MARKER'                 'INTEND'
RHS
    RHS1      allocateEach[1]  1
    RHS1      allocateEach[2]  1
    RHS1      allocateEach[3]  1
    RHS1      allocateEach[4]  1
    RHS1      allocateEach[5]  1
    RHS1      allocateEach[6]  1
    RHS1      allocateEach[7]  1
    RHS1      allocateEach[8]  1
    RHS1      allocateEach[9]  1
    RHS1      allocateEach[10]  1
    RHS1      allocateEach[11]  1
    RHS1      allocateEach[12]  1
    RHS1      allocateEach[13]  1
    RHS1      allocateEach[14]  1
    RHS1      allocateEach[15]  1
    RHS1      allocateEach[16]  1
    RHS1      allocateEach[17]  1
    RHS1      allocateEach[18]  1
    RHS1      allocateEach[19]  1
    RHS1      allocateAllCash  1
BOUNDS
 UP BND1      z         1
 MI BND1      cashProportion[1]
 UP BND1      cashProportion[1]  1
 MI BND1      cashProportion[2]
 UP BND1      cashProportion[2]  1
 MI BND1      cashProportion[3]
 UP BND1      cashProportion[3]  1
 BV BND1      x[1,1]  
 BV BND1      x[1,2]  
 BV BND1      x[1,3]  
 BV BND1      x[1,4]  
 BV BND1      x[1,5]  
 BV BND1      x[1,6]  
 BV BND1      x[1,7]  
 BV BND1      x[1,8]  
 BV BND1      x[1,9]  
 BV BND1      x[1,10] 
 BV BND1      x[1,11] 
 BV BND1      x[1,12] 
 BV BND1      x[1,13] 
 BV BND1      x[1,14] 
 BV BND1      x[1,15] 
 BV BND1      x[1,16] 
 BV BND1      x[1,17] 
 BV BND1      x[1,18] 
 BV BND1      x[1,19] 
 BV BND1      x[2,1]  
 BV BND1      x[2,2]  
 BV BND1      x[2,3]  
 BV BND1      x[2,4]  
 BV BND1      x[2,5]  
 BV BND1      x[2,6]  
 BV BND1      x[2,7]  
 BV BND1      x[2,8]  
 BV BND1      x[2,9]  
 BV BND1      x[2,10] 
 BV BND1      x[2,11] 
 BV BND1      x[2,12] 
 BV BND1      x[2,13] 
 BV BND1      x[2,14] 
 BV BND1      x[2,15] 
 BV BND1      x[2,16] 
 BV BND1      x[2,17] 
 BV BND1      x[2,18] 
 BV BND1      x[2,19] 
 BV BND1      x[3,1]  
 BV BND1      x[3,2]  
 BV BND1      x[3,3]  
 BV BND1      x[3,4]  
 BV BND1      x[3,5]  
 BV BND1      x[3,6]  
 BV BND1      x[3,7]  
 BV BND1      x[3,8]  
 BV BND1      x[3,9]  
 BV BND1      x[3,10] 
 BV BND1      x[3,11] 
 BV BND1      x[3,12] 
 BV BND1      x[3,13] 
 BV BND1      x[3,14] 
 BV BND1      x[3,15] 
 BV BND1      x[3,16] 
 BV BND1      x[3,17] 
 BV BND1      x[3,18] 
 BV BND1      x[3,19] 
ENDATA
